# Data for pyomo

set c := c1 c2 c3 c4;

set h := h1 h2 h3 h4;

set j := j1 j2;

set m := 
m1 
m2 
m3 
m4 
m5 
m6
;

set p :=
p1
p2
p3
p4
p5
p6
p7
p8
p9
p10
p11
p12
p13
p14
p15
p16
p17
p18
p19
p20
p21
p22
p23
p24
p25
p26
p27
p28
p29
p30
p31
p32
p33
p34
p35
p36
p37
p38
p39
p40
p41
p42
p43
p44
p45
p46
p47
p48
p49
p50
p51
p52
p53
p54
p55
p56
p57
p58
p59
p60
p61
p62
p63
p64
p65
p66
p67
p68
p69
p70
p71
p72
p73
p74
p75
;

param CIM :=
m1 2216.13
m2 16621.00
m3 5540.33
m4 2216.13
m5 16621.00
m6 5540.33
;

param FCAP :=
m1 4
m2 31
m3 10
m4 4
m5 31
m6 10
;

param TT1 :=
j1 1
j2 2
;

param TT3 :=
j1 1
j2 2
;


param U1 :=
c1 m1 j1 1040
c1 m2 j1 2600
c1 m3 j1 2600
c1 m4 j1 2900
c1 m5 j1 3500
c1 m6 j1 3500
c2 m1 j1 2600
c2 m2 j1 200
c2 m3 j1 2600
c2 m4 j1 2900
c2 m5 j1 3500
c2 m6 j1 3500
c3 m1 j1 1840
c3 m2 j1 2000
c3 m3 j1 2900
c3 m4 j1 2900
c3 m5 j1 3500
c3 m6 j1 3500
c4 m1 j1 1640
c4 m2 j1 1820
c4 m3 j1 2900
c4 m4 j1 2900
c4 m5 j1 3500
c4 m6 j1 3500
c1 m1 j2 520
c1 m2 j2 520
c1 m3 j2 520
c1 m4 j2 936
c1 m5 j2 1053
c1 m6 j2 1053
c2 m1 j2 520
c2 m2 j2 100
c2 m3 j2 520
c2 m4 j2 936
c2 m5 j2 1053
c2 m6 j2 1053
c3 m1 j2 520
c3 m2 j2 520
c3 m3 j2 936
c3 m4 j2 936
c3 m5 j2 1053
c3 m6 j2 1053
c4 m1 j2 520
c4 m2 j2 520
c4 m3 j2 936
c4 m4 j2 936
c4 m5 j2 1053
c4 m6 j2 1053
;

param U3 :=
m1 h1 j1 1910
m1 h2 j1 1910
m1 h3 j1 2910
m1 h4 j1 1910
m2 h1 j1 2910
m2 h2 j1 400
m2 h3 j1 1910
m2 h4 j1 1910
m3 h1 j1 2910
m3 h2 j1 2910
m3 h3 j1 2910
m3 h4 j1 2910
m4 h1 j1 2910
m4 h2 j1 2910
m4 h3 j1 2910
m4 h4 j1 2910
m5 h1 j1 2910
m5 h2 j1 2910
m5 h3 j1 2910
m5 h4 j1 2910
m6 h1 j1 2910
m6 h2 j1 2910
m6 h3 j1 2910
m6 h4 j1 2910
m1 h1 j2 910
m1 h2 j2 910
m1 h3 j2 910
m1 h4 j2 910
m2 h1 j2 910
m2 h2 j2 300
m2 h3 j2 910
m2 h4 j2 910
m3 h1 j2 1755
m3 h2 j2 1755
m3 h3 j2 1755
m3 h4 j2 1755
m4 h1 j2 1755
m4 h2 j2 1755
m4 h3 j2 1755
m4 h4 j2 1755
m5 h1 j2 1855
m5 h2 j2 1855
m5 h3 j2 1855
m5 h4 j2 1755
m6 h1 j2 1855
m6 h2 j2 1855
m6 h3 j2 1855
m6 h4 j2 1855
;

param INC :=
p1 c4 89 1
p2 c4 15 1
p3 c1 45 1
p4 c2 23 1
p5 c1 16 1
p6 c3 27 1
p7 c4 49 1
p8 c2 27 1
p9 c3 78 1
p10 c4 82 1
p11 c3 27 1
p12 c4 8 1
p13 c3 43 1
p14 c1 3 1
p15 c2 38 1
p16 c3 80 1
p17 c2 82 1
p18 c3 57 1
p19 c3 26 1
p20 c4 35 1
p21 c4 62 1
p22 c2 31 1
p23 c4 34 1
p24 c4 45 1
p25 c2 7 1
p26 c3 55 1
p27 c3 15 1
p28 c3 85 1
p29 c3 87 1
p30 c1 35 1
p31 c4 61 1
p32 c1 86 1
p33 c1 80 1
p34 c3 78 1
p35 c2 15 1
p36 c4 14 1
p37 c1 70 1
p38 c3 57 1
p39 c3 37 1
p40 c2 69 1
p41 c2 11 1
p42 c1 88 1
p43 c2 62 1
p44 c4 8 1
p45 c3 15 1
p46 c1 30 1
p47 c3 34 1
p48 c4 69 1
p49 c1 51 1
p50 c2 48 1
p51 c2 50 1
p52 c2 7 1
p53 c1 10 1
p54 c1 44 1
p55 c1 60 1
p56 c2 13 1
p57 c1 62 1
p58 c1 48 1
p59 c3 28 1
p60 c4 13 1
p61 c4 51 1
p62 c1 47 1
p63 c1 51 1
p64 c4 24 1
p65 c2 23 1
p66 c1 87 1
p67 c3 44 1
p68 c1 79 1
p69 c2 5 1
p70 c4 74 1
p71 c4 19 1
p72 c4 34 1
p73 c3 16 1
p74 c2 49 1
p75 c3 79 1
;

param FMAX := 1 ;
param FMIN := 0 ;
param TAD := 0 ;
param TLS := 1 ;
